NAME: CMT2_4
TYPE: CVRP
COMMENT: 835.26 - Cluster Nr.4
DIMENSION: 8
CAPACITY: 140
EDGE_WEIGHT_TYPE: EUC_2D
NODE_COORD_TYPE: TWOD_COORDS
NODE_COORD_SECTION: 
2 30 50
5 33 44
7 41 46
3 35 60
6 45 42
8 29 39
4 40 40
1 35 51
DEPOT_SECTION: 
4
-1
DEMAND_SECTION: 
4 0
6 30
2 33
7 18
3 1
5 20
1 16
8 12
EOF
